(set-info :origin "NTS benchmark converted to SMT-LIB2 using Eldarica (http://lara.epfl.ch/w/eldarica)")
(set-logic HORN)
(declare-fun main_s13 (Int Int Int Int Int Int Int Int Int Int Int Int Int Int Int Int Int Int Int Int Int Int Int Int Int Int Int Int) Bool)
(declare-fun main_s14 (Int Int Int Int Int Int Int Int Int Int Int Int Int Int Int Int Int Int Int Int Int Int Int Int Int Int Int Int) Bool)
(declare-fun main_s22 (Int Int Int Int Int Int Int Int Int Int Int Int Int Int Int Int Int Int Int Int Int Int Int Int Int Int Int Int) Bool)
(declare-fun main_s15 (Int Int Int Int Int Int Int Int Int Int Int Int Int Int Int Int Int Int Int Int Int Int Int Int Int Int Int Int) Bool)
(declare-fun main_s23 (Int Int Int Int Int Int Int Int Int Int Int Int Int Int Int Int Int Int Int Int Int Int Int Int Int Int Int Int) Bool)
(declare-fun main_s16 (Int Int Int Int Int Int Int Int Int Int Int Int Int Int Int Int Int Int Int Int Int Int Int Int Int Int Int Int) Bool)
(declare-fun main_s12 (Int Int Int Int Int Int Int Int Int Int Int Int Int Int Int Int Int Int Int Int Int Int Int Int Int Int Int Int) Bool)
(declare-fun main_s18 (Int Int Int Int Int Int Int Int Int Int Int Int Int Int Int Int Int Int Int Int Int Int Int Int Int Int Int Int) Bool)
(declare-fun main_s19 (Int Int Int Int Int Int Int Int Int Int Int Int Int Int Int Int Int Int Int Int Int Int Int Int Int Int Int Int) Bool)
(declare-fun main_s20 (Int Int Int Int Int Int Int Int Int Int Int Int Int Int Int Int Int Int Int Int Int Int Int Int Int Int Int Int) Bool)
(declare-fun main_s29 (Int Int Int Int Int Int Int Int Int Int Int Int Int Int Int Int Int Int Int Int Int Int Int Int Int Int Int Int) Bool)
(declare-fun main_s30 (Int Int Int Int Int Int Int Int Int Int Int Int Int Int Int Int Int Int Int Int Int Int Int Int Int Int Int Int) Bool)
(declare-fun main_s24 (Int Int Int Int Int Int Int Int Int Int Int Int Int Int Int Int Int Int Int Int Int Int Int Int Int Int Int Int) Bool)
(declare-fun main_s26 (Int Int Int Int Int Int Int Int Int Int Int Int Int Int Int Int Int Int Int Int Int Int Int Int Int Int Int Int) Bool)
(declare-fun main_s27 (Int Int Int Int Int Int Int Int Int Int Int Int Int Int Int Int Int Int Int Int Int Int Int Int Int Int Int Int) Bool)
(declare-fun main_s25 (Int Int Int Int Int Int Int Int Int Int Int Int Int Int Int Int Int Int Int Int Int Int Int Int Int Int Int Int) Bool)
(declare-fun main_s28 (Int Int Int Int Int Int Int Int Int Int Int Int Int Int Int Int Int Int Int Int Int Int Int Int Int Int Int Int) Bool)
(declare-fun main_s7 (Int Int Int Int Int Int Int Int Int Int Int Int Int Int Int Int Int Int Int Int Int Int Int Int Int Int Int Int) Bool)
(declare-fun main_s8 (Int Int Int Int Int Int Int Int Int Int Int Int Int Int Int Int Int Int Int Int Int Int Int Int Int Int Int Int) Bool)
(declare-fun main_s6 (Int Int Int Int Int Int Int Int Int Int Int Int Int Int Int Int Int Int Int Int Int Int Int Int Int Int Int Int) Bool)
(declare-fun main_s5 (Int Int Int Int Int Int Int Int Int Int Int Int Int Int Int Int Int Int Int Int Int Int Int Int Int Int Int Int) Bool)
(declare-fun main_s0 (Int Int Int Int Int Int Int Int Int Int Int Int Int Int Int Int Int Int Int Int Int Int Int Int Int Int Int Int) Bool)
(declare-fun main_s11 (Int Int Int Int Int Int Int Int Int Int Int Int Int Int Int Int Int Int Int Int Int Int Int Int Int Int Int Int) Bool)
(declare-fun main_s10 (Int Int Int Int Int Int Int Int Int Int Int Int Int Int Int Int Int Int Int Int Int Int Int Int Int Int Int Int) Bool)
(declare-fun main_s4 (Int Int Int Int Int Int Int Int Int Int Int Int Int Int Int Int Int Int Int Int Int Int Int Int Int Int Int Int) Bool)
(declare-fun main_s9 (Int Int Int Int Int Int Int Int Int Int Int Int Int Int Int Int Int Int Int Int Int Int Int Int Int Int Int Int) Bool)
(declare-fun main_s21 (Int Int Int Int Int Int Int Int Int Int Int Int Int Int Int Int Int Int Int Int Int Int Int Int Int Int Int Int) Bool)
(declare-fun main_s3 (Int Int Int Int Int Int Int Int Int Int Int Int Int Int Int Int Int Int Int Int Int Int Int Int Int Int Int Int) Bool)
(declare-fun main_s2 (Int Int Int Int Int Int Int Int Int Int Int Int Int Int Int Int Int Int Int Int Int Int Int Int Int Int Int Int) Bool)
(declare-fun main_s17 (Int Int Int Int Int Int Int Int Int Int Int Int Int Int Int Int Int Int Int Int Int Int Int Int Int Int Int Int) Bool)
(declare-fun main_s1 (Int Int Int Int Int Int Int Int Int Int Int Int Int Int Int Int Int Int Int Int Int Int Int Int Int Int Int Int) Bool)
(declare-fun main_s_init (Int Int Int Int Int Int Int Int Int Int Int Int Int Int Int Int Int Int Int Int Int Int Int Int Int Int Int Int) Bool)
(assert(not (exists((?A Int)(?B Int)(?C Int)(?D Int)(?E Int)(?F Int)(?G Int)(?H Int)(?I Int)(?J Int)(?K Int)(?L Int)(?M Int)(?N Int)(?O Int)(?P Int)(?Q Int)(?R Int)(?S Int)(?T Int)(?U Int)(?V Int)(?W Int)(?X Int)(?Y Int)(?Z Int)(?A1 Int)(?B1 Int)(?C1 Int)(?D1 Int)(?E1 Int)(?F1 Int)(?G1 Int)(?H1 Int)(?I1 Int)(?J1 Int))(and (main_s13 ?A ?B ?C ?D ?E ?F ?G ?H ?I ?J ?K ?L ?M ?N ?O ?P ?Q ?R ?S ?T ?U ?V ?W ?X ?Y ?Z ?A1 ?B1)(and (and (and (and (and (and (and (and (not (= ?A1 1)) (= ?V ?C1)) (= ?Y ?D1)) (= ?W ?E1)) (= ?B1 ?F1)) (= ?U ?G1)) (= ?A1 ?H1)) (= ?X ?I1)) (= ?Z ?J1))))))
(assert(forall((?A Int)(?B Int)(?C Int)(?D Int)(?E Int)(?F Int)(?G Int)(?H Int)(?I Int)(?J Int)(?K Int)(?L Int)(?M Int)(?N Int)(?O Int)(?P Int)(?Q Int)(?R Int)(?S Int)(?T Int)(?U Int)(?V Int)(?W Int)(?X Int)(?Y Int)(?Z Int)(?A1 Int)(?B1 Int)(?C1 Int)(?D1 Int)(?E1 Int)(?F1 Int)(?G1 Int)(?H1 Int)(?I1 Int)(?J1 Int)(?K1 Int)(?L1 Int)(?M1 Int)(?N1 Int)(?O1 Int)(?P1 Int))(=>(and (main_s13 ?A ?B ?C ?D ?E ?F ?G ?H ?I ?J ?K ?L ?M ?N ?C1 ?D1 ?E1 ?F1 ?G1 ?H1 ?I1 ?J1 ?K1 ?L1 ?M1 ?N1 ?O1 ?P1)(and (and (and (and (and (and (and (and (= ?O1 1) (= ?J1 ?V)) (= ?M1 ?Y)) (= ?K1 ?W)) (= ?P1 ?B1)) (= ?I1 ?U)) (= ?O1 ?A1)) (= ?L1 ?X)) (= ?N1 ?Z))) (main_s14 ?A ?B ?C ?D ?E ?F ?G ?H ?I ?J ?K ?L ?M ?N ?O ?P ?Q ?R ?S ?T ?U ?V ?W ?X ?Y ?Z ?A1 ?B1))))
(assert(forall((?A Int)(?B Int)(?C Int)(?D Int)(?E Int)(?F Int)(?G Int)(?H Int)(?I Int)(?J Int)(?K Int)(?L Int)(?M Int)(?N Int)(?O Int)(?P Int)(?Q Int)(?R Int)(?S Int)(?T Int)(?U Int)(?V Int)(?W Int)(?X Int)(?Y Int)(?Z Int)(?A1 Int)(?B1 Int)(?C1 Int)(?D1 Int)(?E1 Int)(?F1 Int)(?G1 Int)(?H1 Int)(?I1 Int)(?J1 Int)(?K1 Int)(?L1 Int)(?M1 Int)(?N1 Int)(?O1 Int)(?P1 Int))(=>(and (main_s22 ?A ?B ?C ?D ?E ?F ?G ?H ?I ?J ?K ?L ?M ?N ?C1 ?D1 ?E1 ?F1 ?G1 ?H1 ?I1 ?J1 ?K1 ?L1 ?M1 ?N1 ?O1 ?P1)(and (and (and (and (and (and (and (and (not (>= ?J1 0)) (= ?J1 ?V)) (= ?M1 ?Y)) (= ?K1 ?W)) (= ?P1 ?B1)) (= ?I1 ?U)) (= ?O1 ?A1)) (= ?L1 ?X)) (= ?N1 ?Z))) (main_s15 ?A ?B ?C ?D ?E ?F ?G ?H ?I ?J ?K ?L ?M ?N ?O ?P ?Q ?R ?S ?T ?U ?V ?W ?X ?Y ?Z ?A1 ?B1))))
(assert(forall((?A Int)(?B Int)(?C Int)(?D Int)(?E Int)(?F Int)(?G Int)(?H Int)(?I Int)(?J Int)(?K Int)(?L Int)(?M Int)(?N Int)(?O Int)(?P Int)(?Q Int)(?R Int)(?S Int)(?T Int)(?U Int)(?V Int)(?W Int)(?X Int)(?Y Int)(?Z Int)(?A1 Int)(?B1 Int)(?C1 Int)(?D1 Int)(?E1 Int)(?F1 Int)(?G1 Int)(?H1 Int)(?I1 Int)(?J1 Int)(?K1 Int)(?L1 Int)(?M1 Int)(?N1 Int)(?O1 Int)(?P1 Int))(=>(and (main_s22 ?A ?B ?C ?D ?E ?F ?G ?H ?I ?J ?K ?L ?M ?N ?C1 ?D1 ?E1 ?F1 ?G1 ?H1 ?I1 ?J1 ?K1 ?L1 ?M1 ?N1 ?O1 ?P1)(and (and (and (and (and (and (and (and (>= ?J1 0) (= ?J1 ?V)) (= ?M1 ?Y)) (= ?K1 ?W)) (= ?P1 ?B1)) (= ?I1 ?U)) (= ?O1 ?A1)) (= ?L1 ?X)) (= ?N1 ?Z))) (main_s23 ?A ?B ?C ?D ?E ?F ?G ?H ?I ?J ?K ?L ?M ?N ?O ?P ?Q ?R ?S ?T ?U ?V ?W ?X ?Y ?Z ?A1 ?B1))))
(assert(not (exists((?A Int)(?B Int)(?C Int)(?D Int)(?E Int)(?F Int)(?G Int)(?H Int)(?I Int)(?J Int)(?K Int)(?L Int)(?M Int)(?N Int)(?O Int)(?P Int)(?Q Int)(?R Int)(?S Int)(?T Int)(?U Int)(?V Int)(?W Int)(?X Int)(?Y Int)(?Z Int)(?A1 Int)(?B1 Int)(?C1 Int)(?D1 Int)(?E1 Int)(?F1 Int)(?G1 Int)(?H1 Int)(?I1 Int)(?J1 Int))(and (main_s15 ?A ?B ?C ?D ?E ?F ?G ?H ?I ?J ?K ?L ?M ?N ?O ?P ?Q ?R ?S ?T ?U ?V ?W ?X ?Y ?Z ?A1 ?B1)(and (and (and (and (and (and (and (and (not (= ?A1 0)) (= ?V ?C1)) (= ?Y ?D1)) (= ?W ?E1)) (= ?B1 ?F1)) (= ?U ?G1)) (= ?A1 ?H1)) (= ?X ?I1)) (= ?Z ?J1))))))
(assert(forall((?A Int)(?B Int)(?C Int)(?D Int)(?E Int)(?F Int)(?G Int)(?H Int)(?I Int)(?J Int)(?K Int)(?L Int)(?M Int)(?N Int)(?O Int)(?P Int)(?Q Int)(?R Int)(?S Int)(?T Int)(?U Int)(?V Int)(?W Int)(?X Int)(?Y Int)(?Z Int)(?A1 Int)(?B1 Int)(?C1 Int)(?D1 Int)(?E1 Int)(?F1 Int)(?G1 Int)(?H1 Int)(?I1 Int)(?J1 Int)(?K1 Int)(?L1 Int)(?M1 Int)(?N1 Int)(?O1 Int)(?P1 Int))(=>(and (main_s15 ?A ?B ?C ?D ?E ?F ?G ?H ?I ?J ?K ?L ?M ?N ?C1 ?D1 ?E1 ?F1 ?G1 ?H1 ?I1 ?J1 ?K1 ?L1 ?M1 ?N1 ?O1 ?P1)(and (and (and (and (and (and (and (and (= ?O1 0) (= ?J1 ?V)) (= ?M1 ?Y)) (= ?K1 ?W)) (= ?P1 ?B1)) (= ?I1 ?U)) (= ?O1 ?A1)) (= ?L1 ?X)) (= ?N1 ?Z))) (main_s16 ?A ?B ?C ?D ?E ?F ?G ?H ?I ?J ?K ?L ?M ?N ?O ?P ?Q ?R ?S ?T ?U ?V ?W ?X ?Y ?Z ?A1 ?B1))))
(assert(forall((?A Int)(?B Int)(?C Int)(?D Int)(?E Int)(?F Int)(?G Int)(?H Int)(?I Int)(?J Int)(?K Int)(?L Int)(?M Int)(?N Int)(?O Int)(?P Int)(?Q Int)(?R Int)(?S Int)(?T Int)(?U Int)(?V Int)(?W Int)(?X Int)(?Y Int)(?Z Int)(?A1 Int)(?B1 Int)(?C1 Int)(?D1 Int)(?E1 Int)(?F1 Int)(?G1 Int)(?H1 Int)(?I1 Int)(?J1 Int)(?K1 Int)(?L1 Int)(?M1 Int)(?N1 Int)(?O1 Int)(?P1 Int))(=>(and (main_s18 ?A ?B ?C ?D ?E ?F ?G ?H ?I ?J ?K ?L ?M ?N ?C1 ?D1 ?E1 ?F1 ?G1 ?H1 ?I1 ?J1 ?K1 ?L1 ?M1 ?N1 ?O1 ?P1)(and (and (and (and (and (and (and (and (not (>= ?K1 0)) (= ?J1 ?V)) (= ?M1 ?Y)) (= ?K1 ?W)) (= ?P1 ?B1)) (= ?I1 ?U)) (= ?O1 ?A1)) (= ?L1 ?X)) (= ?N1 ?Z))) (main_s12 ?A ?B ?C ?D ?E ?F ?G ?H ?I ?J ?K ?L ?M ?N ?O ?P ?Q ?R ?S ?T ?U ?V ?W ?X ?Y ?Z ?A1 ?B1))))
(assert(forall((?A Int)(?B Int)(?C Int)(?D Int)(?E Int)(?F Int)(?G Int)(?H Int)(?I Int)(?J Int)(?K Int)(?L Int)(?M Int)(?N Int)(?O Int)(?P Int)(?Q Int)(?R Int)(?S Int)(?T Int)(?U Int)(?V Int)(?W Int)(?X Int)(?Y Int)(?Z Int)(?A1 Int)(?B1 Int)(?C1 Int)(?D1 Int)(?E1 Int)(?F1 Int)(?G1 Int)(?H1 Int)(?I1 Int)(?J1 Int)(?K1 Int)(?L1 Int)(?M1 Int)(?N1 Int)(?O1 Int)(?P1 Int))(=>(and (main_s18 ?A ?B ?C ?D ?E ?F ?G ?H ?I ?J ?K ?L ?M ?N ?C1 ?D1 ?E1 ?F1 ?G1 ?H1 ?I1 ?J1 ?K1 ?L1 ?M1 ?N1 ?O1 ?P1)(and (and (and (and (and (and (and (and (>= ?K1 0) (= ?J1 ?V)) (= ?M1 ?Y)) (= ?K1 ?W)) (= ?P1 ?B1)) (= ?I1 ?U)) (= ?O1 ?A1)) (= ?L1 ?X)) (= ?N1 ?Z))) (main_s19 ?A ?B ?C ?D ?E ?F ?G ?H ?I ?J ?K ?L ?M ?N ?O ?P ?Q ?R ?S ?T ?U ?V ?W ?X ?Y ?Z ?A1 ?B1))))
(assert(not (exists((?A Int)(?B Int)(?C Int)(?D Int)(?E Int)(?F Int)(?G Int)(?H Int)(?I Int)(?J Int)(?K Int)(?L Int)(?M Int)(?N Int)(?O Int)(?P Int)(?Q Int)(?R Int)(?S Int)(?T Int)(?U Int)(?V Int)(?W Int)(?X Int)(?Y Int)(?Z Int)(?A1 Int)(?B1 Int)(?C1 Int)(?D1 Int)(?E1 Int)(?F1 Int)(?G1 Int)(?H1 Int)(?I1 Int)(?J1 Int))(and (main_s19 ?A ?B ?C ?D ?E ?F ?G ?H ?I ?J ?K ?L ?M ?N ?O ?P ?Q ?R ?S ?T ?U ?V ?W ?X ?Y ?Z ?A1 ?B1)(and (and (and (and (and (and (and (and (not (= ?A1 1)) (= ?V ?C1)) (= ?Y ?D1)) (= ?W ?E1)) (= ?B1 ?F1)) (= ?U ?G1)) (= ?A1 ?H1)) (= ?X ?I1)) (= ?Z ?J1))))))
(assert(forall((?A Int)(?B Int)(?C Int)(?D Int)(?E Int)(?F Int)(?G Int)(?H Int)(?I Int)(?J Int)(?K Int)(?L Int)(?M Int)(?N Int)(?O Int)(?P Int)(?Q Int)(?R Int)(?S Int)(?T Int)(?U Int)(?V Int)(?W Int)(?X Int)(?Y Int)(?Z Int)(?A1 Int)(?B1 Int)(?C1 Int)(?D1 Int)(?E1 Int)(?F1 Int)(?G1 Int)(?H1 Int)(?I1 Int)(?J1 Int)(?K1 Int)(?L1 Int)(?M1 Int)(?N1 Int)(?O1 Int)(?P1 Int))(=>(and (main_s19 ?A ?B ?C ?D ?E ?F ?G ?H ?I ?J ?K ?L ?M ?N ?C1 ?D1 ?E1 ?F1 ?G1 ?H1 ?I1 ?J1 ?K1 ?L1 ?M1 ?N1 ?O1 ?P1)(and (and (and (and (and (and (and (and (= ?O1 1) (= ?J1 ?V)) (= ?M1 ?Y)) (= ?K1 ?W)) (= ?P1 ?B1)) (= ?I1 ?U)) (= ?O1 ?A1)) (= ?L1 ?X)) (= ?N1 ?Z))) (main_s20 ?A ?B ?C ?D ?E ?F ?G ?H ?I ?J ?K ?L ?M ?N ?O ?P ?Q ?R ?S ?T ?U ?V ?W ?X ?Y ?Z ?A1 ?B1))))
(assert(forall((?A Int)(?B Int)(?C Int)(?D Int)(?E Int)(?F Int)(?G Int)(?H Int)(?I Int)(?J Int)(?K Int)(?L Int)(?M Int)(?N Int)(?O Int)(?P Int)(?Q Int)(?R Int)(?S Int)(?T Int)(?U Int)(?V Int)(?W Int)(?X Int)(?Y Int)(?Z Int)(?A1 Int)(?B1 Int)(?C1 Int)(?D1 Int)(?E1 Int)(?F1 Int)(?G1 Int)(?H1 Int)(?I1 Int)(?J1 Int)(?K1 Int)(?L1 Int)(?M1 Int)(?N1 Int)(?O1 Int)(?P1 Int))(=>(and (main_s29 ?A ?B ?C ?D ?E ?F ?G ?H ?I ?J ?K ?L ?M ?N ?C1 ?D1 ?E1 ?F1 ?G1 ?H1 ?I1 ?J1 ?K1 ?L1 ?M1 ?N1 ?O1 ?P1)(and (and (and (and (and (and (and (= ?A1 1) (= ?J1 ?V)) (= ?M1 ?Y)) (= ?K1 ?W)) (= ?P1 ?B1)) (= ?I1 ?U)) (= ?L1 ?X)) (= ?N1 ?Z))) (main_s30 ?A ?B ?C ?D ?E ?F ?G ?H ?I ?J ?K ?L ?M ?N ?O ?P ?Q ?R ?S ?T ?U ?V ?W ?X ?Y ?Z ?A1 ?B1))))
(assert(forall((?A Int)(?B Int)(?C Int)(?D Int)(?E Int)(?F Int)(?G Int)(?H Int)(?I Int)(?J Int)(?K Int)(?L Int)(?M Int)(?N Int)(?O Int)(?P Int)(?Q Int)(?R Int)(?S Int)(?T Int)(?U Int)(?V Int)(?W Int)(?X Int)(?Y Int)(?Z Int)(?A1 Int)(?B1 Int)(?C1 Int)(?D1 Int)(?E1 Int)(?F1 Int)(?G1 Int)(?H1 Int)(?I1 Int)(?J1 Int)(?K1 Int)(?L1 Int)(?M1 Int)(?N1 Int)(?O1 Int)(?P1 Int))(=>(and (main_s23 ?A ?B ?C ?D ?E ?F ?G ?H ?I ?J ?K ?L ?M ?N ?C1 ?D1 ?E1 ?F1 ?G1 ?H1 ?I1 ?J1 ?K1 ?L1 ?M1 ?N1 ?O1 ?P1)(and (and (and (and (and (and (and (= ?X 0) (= ?J1 ?V)) (= ?M1 ?Y)) (= ?K1 ?W)) (= ?P1 ?B1)) (= ?I1 ?U)) (= ?O1 ?A1)) (= ?N1 ?Z))) (main_s24 ?A ?B ?C ?D ?E ?F ?G ?H ?I ?J ?K ?L ?M ?N ?O ?P ?Q ?R ?S ?T ?U ?V ?W ?X ?Y ?Z ?A1 ?B1))))
(assert(not (exists((?A Int)(?B Int)(?C Int)(?D Int)(?E Int)(?F Int)(?G Int)(?H Int)(?I Int)(?J Int)(?K Int)(?L Int)(?M Int)(?N Int)(?O Int)(?P Int)(?Q Int)(?R Int)(?S Int)(?T Int)(?U Int)(?V Int)(?W Int)(?X Int)(?Y Int)(?Z Int)(?A1 Int)(?B1 Int)(?C1 Int)(?D1 Int)(?E1 Int)(?F1 Int)(?G1 Int)(?H1 Int)(?I1 Int)(?J1 Int))(and (main_s26 ?A ?B ?C ?D ?E ?F ?G ?H ?I ?J ?K ?L ?M ?N ?O ?P ?Q ?R ?S ?T ?U ?V ?W ?X ?Y ?Z ?A1 ?B1)(and (and (and (and (and (and (and (and (not (= ?A1 1)) (= ?V ?C1)) (= ?Y ?D1)) (= ?W ?E1)) (= ?B1 ?F1)) (= ?U ?G1)) (= ?A1 ?H1)) (= ?X ?I1)) (= ?Z ?J1))))))
(assert(forall((?A Int)(?B Int)(?C Int)(?D Int)(?E Int)(?F Int)(?G Int)(?H Int)(?I Int)(?J Int)(?K Int)(?L Int)(?M Int)(?N Int)(?O Int)(?P Int)(?Q Int)(?R Int)(?S Int)(?T Int)(?U Int)(?V Int)(?W Int)(?X Int)(?Y Int)(?Z Int)(?A1 Int)(?B1 Int)(?C1 Int)(?D1 Int)(?E1 Int)(?F1 Int)(?G1 Int)(?H1 Int)(?I1 Int)(?J1 Int)(?K1 Int)(?L1 Int)(?M1 Int)(?N1 Int)(?O1 Int)(?P1 Int))(=>(and (main_s26 ?A ?B ?C ?D ?E ?F ?G ?H ?I ?J ?K ?L ?M ?N ?C1 ?D1 ?E1 ?F1 ?G1 ?H1 ?I1 ?J1 ?K1 ?L1 ?M1 ?N1 ?O1 ?P1)(and (and (and (and (and (and (and (and (= ?O1 1) (= ?J1 ?V)) (= ?M1 ?Y)) (= ?K1 ?W)) (= ?P1 ?B1)) (= ?I1 ?U)) (= ?O1 ?A1)) (= ?L1 ?X)) (= ?N1 ?Z))) (main_s27 ?A ?B ?C ?D ?E ?F ?G ?H ?I ?J ?K ?L ?M ?N ?O ?P ?Q ?R ?S ?T ?U ?V ?W ?X ?Y ?Z ?A1 ?B1))))
(assert(forall((?A Int)(?B Int)(?C Int)(?D Int)(?E Int)(?F Int)(?G Int)(?H Int)(?I Int)(?J Int)(?K Int)(?L Int)(?M Int)(?N Int)(?O Int)(?P Int)(?Q Int)(?R Int)(?S Int)(?T Int)(?U Int)(?V Int)(?W Int)(?X Int)(?Y Int)(?Z Int)(?A1 Int)(?B1 Int)(?C1 Int)(?D1 Int)(?E1 Int)(?F1 Int)(?G1 Int)(?H1 Int)(?I1 Int)(?J1 Int)(?K1 Int)(?L1 Int)(?M1 Int)(?N1 Int)(?O1 Int)(?P1 Int))(=>(and (main_s24 ?A ?B ?C ?D ?E ?F ?G ?H ?I ?J ?K ?L ?M ?N ?C1 ?D1 ?E1 ?F1 ?G1 ?H1 ?I1 ?J1 ?K1 ?L1 ?M1 ?N1 ?O1 ?P1)(and (and (and (and (and (and (and (and (not (>= ?I1 0)) (= ?J1 ?V)) (= ?M1 ?Y)) (= ?K1 ?W)) (= ?P1 ?B1)) (= ?I1 ?U)) (= ?O1 ?A1)) (= ?L1 ?X)) (= ?N1 ?Z))) (main_s25 ?A ?B ?C ?D ?E ?F ?G ?H ?I ?J ?K ?L ?M ?N ?O ?P ?Q ?R ?S ?T ?U ?V ?W ?X ?Y ?Z ?A1 ?B1))))
(assert(forall((?A Int)(?B Int)(?C Int)(?D Int)(?E Int)(?F Int)(?G Int)(?H Int)(?I Int)(?J Int)(?K Int)(?L Int)(?M Int)(?N Int)(?O Int)(?P Int)(?Q Int)(?R Int)(?S Int)(?T Int)(?U Int)(?V Int)(?W Int)(?X Int)(?Y Int)(?Z Int)(?A1 Int)(?B1 Int)(?C1 Int)(?D1 Int)(?E1 Int)(?F1 Int)(?G1 Int)(?H1 Int)(?I1 Int)(?J1 Int)(?K1 Int)(?L1 Int)(?M1 Int)(?N1 Int)(?O1 Int)(?P1 Int))(=>(and (main_s24 ?A ?B ?C ?D ?E ?F ?G ?H ?I ?J ?K ?L ?M ?N ?C1 ?D1 ?E1 ?F1 ?G1 ?H1 ?I1 ?J1 ?K1 ?L1 ?M1 ?N1 ?O1 ?P1)(and (and (and (and (and (and (and (and (>= ?I1 0) (= ?J1 ?V)) (= ?M1 ?Y)) (= ?K1 ?W)) (= ?P1 ?B1)) (= ?I1 ?U)) (= ?O1 ?A1)) (= ?L1 ?X)) (= ?N1 ?Z))) (main_s28 ?A ?B ?C ?D ?E ?F ?G ?H ?I ?J ?K ?L ?M ?N ?O ?P ?Q ?R ?S ?T ?U ?V ?W ?X ?Y ?Z ?A1 ?B1))))
(assert(forall((?A Int)(?B Int)(?C Int)(?D Int)(?E Int)(?F Int)(?G Int)(?H Int)(?I Int)(?J Int)(?K Int)(?L Int)(?M Int)(?N Int)(?O Int)(?P Int)(?Q Int)(?R Int)(?S Int)(?T Int)(?U Int)(?V Int)(?W Int)(?X Int)(?Y Int)(?Z Int)(?A1 Int)(?B1 Int)(?C1 Int)(?D1 Int)(?E1 Int)(?F1 Int)(?G1 Int)(?H1 Int)(?I1 Int)(?J1 Int)(?K1 Int)(?L1 Int)(?M1 Int)(?N1 Int)(?O1 Int)(?P1 Int))(=>(and (main_s7 ?A ?B ?C ?D ?E ?F ?G ?H ?I ?J ?K ?L ?M ?N ?C1 ?D1 ?E1 ?F1 ?G1 ?H1 ?I1 ?J1 ?K1 ?L1 ?M1 ?N1 ?O1 ?P1)(and (and (and (and (and (and (and (= ?Y ?E1) (= ?J1 ?V)) (= ?K1 ?W)) (= ?P1 ?B1)) (= ?I1 ?U)) (= ?O1 ?A1)) (= ?L1 ?X)) (= ?N1 ?Z))) (main_s8 ?A ?B ?C ?D ?E ?F ?G ?H ?I ?J ?K ?L ?M ?N ?O ?P ?Q ?R ?S ?T ?U ?V ?W ?X ?Y ?Z ?A1 ?B1))))
(assert(forall((?A Int)(?B Int)(?C Int)(?D Int)(?E Int)(?F Int)(?G Int)(?H Int)(?I Int)(?J Int)(?K Int)(?L Int)(?M Int)(?N Int)(?O Int)(?P Int)(?Q Int)(?R Int)(?S Int)(?T Int)(?U Int)(?V Int)(?W Int)(?X Int)(?Y Int)(?Z Int)(?A1 Int)(?B1 Int)(?C1 Int)(?D1 Int)(?E1 Int)(?F1 Int)(?G1 Int)(?H1 Int)(?I1 Int)(?J1 Int)(?K1 Int)(?L1 Int)(?M1 Int)(?N1 Int)(?O1 Int)(?P1 Int))(=>(and (main_s6 ?A ?B ?C ?D ?E ?F ?G ?H ?I ?J ?K ?L ?M ?N ?C1 ?D1 ?E1 ?F1 ?G1 ?H1 ?I1 ?J1 ?K1 ?L1 ?M1 ?N1 ?O1 ?P1)(and (and (and (and (and (and (and (= ?W 0) (= ?J1 ?V)) (= ?M1 ?Y)) (= ?P1 ?B1)) (= ?I1 ?U)) (= ?O1 ?A1)) (= ?L1 ?X)) (= ?N1 ?Z))) (main_s7 ?A ?B ?C ?D ?E ?F ?G ?H ?I ?J ?K ?L ?M ?N ?O ?P ?Q ?R ?S ?T ?U ?V ?W ?X ?Y ?Z ?A1 ?B1))))
(assert(forall((?A Int)(?B Int)(?C Int)(?D Int)(?E Int)(?F Int)(?G Int)(?H Int)(?I Int)(?J Int)(?K Int)(?L Int)(?M Int)(?N Int)(?O Int)(?P Int)(?Q Int)(?R Int)(?S Int)(?T Int)(?U Int)(?V Int)(?W Int)(?X Int)(?Y Int)(?Z Int)(?A1 Int)(?B1 Int)(?C1 Int)(?D1 Int)(?E1 Int)(?F1 Int)(?G1 Int)(?H1 Int)(?I1 Int)(?J1 Int)(?K1 Int)(?L1 Int)(?M1 Int)(?N1 Int)(?O1 Int)(?P1 Int))(=>(and (main_s12 ?A ?B ?C ?D ?E ?F ?G ?H ?I ?J ?K ?L ?M ?N ?C1 ?D1 ?E1 ?F1 ?G1 ?H1 ?I1 ?J1 ?K1 ?L1 ?M1 ?N1 ?O1 ?P1)(and (and (and (and (and (and (and (and (not (not (= ?N1 ?P1))) (= ?J1 ?V)) (= ?M1 ?Y)) (= ?K1 ?W)) (= ?P1 ?B1)) (= ?I1 ?U)) (= ?O1 ?A1)) (= ?L1 ?X)) (= ?N1 ?Z))) (main_s13 ?A ?B ?C ?D ?E ?F ?G ?H ?I ?J ?K ?L ?M ?N ?O ?P ?Q ?R ?S ?T ?U ?V ?W ?X ?Y ?Z ?A1 ?B1))))
(assert(forall((?A Int)(?B Int)(?C Int)(?D Int)(?E Int)(?F Int)(?G Int)(?H Int)(?I Int)(?J Int)(?K Int)(?L Int)(?M Int)(?N Int)(?O Int)(?P Int)(?Q Int)(?R Int)(?S Int)(?T Int)(?U Int)(?V Int)(?W Int)(?X Int)(?Y Int)(?Z Int)(?A1 Int)(?B1 Int)(?C1 Int)(?D1 Int)(?E1 Int)(?F1 Int)(?G1 Int)(?H1 Int)(?I1 Int)(?J1 Int)(?K1 Int)(?L1 Int)(?M1 Int)(?N1 Int)(?O1 Int)(?P1 Int))(=>(and (main_s12 ?A ?B ?C ?D ?E ?F ?G ?H ?I ?J ?K ?L ?M ?N ?C1 ?D1 ?E1 ?F1 ?G1 ?H1 ?I1 ?J1 ?K1 ?L1 ?M1 ?N1 ?O1 ?P1)(and (and (and (and (and (and (and (and (not (= ?N1 ?P1)) (= ?J1 ?V)) (= ?M1 ?Y)) (= ?K1 ?W)) (= ?P1 ?B1)) (= ?I1 ?U)) (= ?O1 ?A1)) (= ?L1 ?X)) (= ?N1 ?Z))) (main_s15 ?A ?B ?C ?D ?E ?F ?G ?H ?I ?J ?K ?L ?M ?N ?O ?P ?Q ?R ?S ?T ?U ?V ?W ?X ?Y ?Z ?A1 ?B1))))
(assert(forall((?A Int)(?B Int)(?C Int)(?D Int)(?E Int)(?F Int)(?G Int)(?H Int)(?I Int)(?J Int)(?K Int)(?L Int)(?M Int)(?N Int)(?O Int)(?P Int)(?Q Int)(?R Int)(?S Int)(?T Int)(?U Int)(?V Int)(?W Int)(?X Int)(?Y Int)(?Z Int)(?A1 Int)(?B1 Int)(?C1 Int)(?D1 Int)(?E1 Int)(?F1 Int)(?G1 Int)(?H1 Int)(?I1 Int)(?J1 Int)(?K1 Int)(?L1 Int)(?M1 Int)(?N1 Int)(?O1 Int)(?P1 Int))(=>(and (main_s5 ?A ?B ?C ?D ?E ?F ?G ?H ?I ?J ?K ?L ?M ?N ?C1 ?D1 ?E1 ?F1 ?G1 ?H1 ?I1 ?J1 ?K1 ?L1 ?M1 ?N1 ?O1 ?P1)(and (and (and (and (and (and (= ?U 0) (= ?J1 ?V)) (= ?M1 ?Y)) (= ?P1 ?B1)) (= ?O1 ?A1)) (= ?L1 ?X)) (= ?N1 ?Z))) (main_s6 ?A ?B ?C ?D ?E ?F ?G ?H ?I ?J ?K ?L ?M ?N ?O ?P ?Q ?R ?S ?T ?U ?V ?W ?X ?Y ?Z ?A1 ?B1))))
(assert(forall((?A Int)(?B Int)(?C Int)(?D Int)(?E Int)(?F Int)(?G Int)(?H Int)(?I Int)(?J Int)(?K Int)(?L Int)(?M Int)(?N Int)(?O Int)(?P Int)(?Q Int)(?R Int)(?S Int)(?T Int)(?U Int)(?V Int)(?W Int)(?X Int)(?Y Int)(?Z Int)(?A1 Int)(?B1 Int)(?C1 Int)(?D1 Int)(?E1 Int)(?F1 Int)(?G1 Int)(?H1 Int)(?I1 Int)(?J1 Int)(?K1 Int)(?L1 Int)(?M1 Int)(?N1 Int)(?O1 Int)(?P1 Int))(=>(and (main_s14 ?A ?B ?C ?D ?E ?F ?G ?H ?I ?J ?K ?L ?M ?N ?C1 ?D1 ?E1 ?F1 ?G1 ?H1 ?I1 ?J1 ?K1 ?L1 ?M1 ?N1 ?O1 ?P1)(and (and (and (and (and (and (and (= ?A1 0) (= ?J1 ?V)) (= ?M1 ?Y)) (= ?K1 ?W)) (= ?P1 ?B1)) (= ?I1 ?U)) (= ?L1 ?X)) (= ?N1 ?Z))) (main_s0 ?A ?B ?C ?D ?E ?F ?G ?H ?I ?J ?K ?L ?M ?N ?O ?P ?Q ?R ?S ?T ?U ?V ?W ?X ?Y ?Z ?A1 ?B1))))
(assert(forall((?A Int)(?B Int)(?C Int)(?D Int)(?E Int)(?F Int)(?G Int)(?H Int)(?I Int)(?J Int)(?K Int)(?L Int)(?M Int)(?N Int)(?O Int)(?P Int)(?Q Int)(?R Int)(?S Int)(?T Int)(?U Int)(?V Int)(?W Int)(?X Int)(?Y Int)(?Z Int)(?A1 Int)(?B1 Int)(?C1 Int)(?D1 Int)(?E1 Int)(?F1 Int)(?G1 Int)(?H1 Int)(?I1 Int)(?J1 Int)(?K1 Int)(?L1 Int)(?M1 Int)(?N1 Int)(?O1 Int)(?P1 Int))(=>(and (main_s27 ?A ?B ?C ?D ?E ?F ?G ?H ?I ?J ?K ?L ?M ?N ?C1 ?D1 ?E1 ?F1 ?G1 ?H1 ?I1 ?J1 ?K1 ?L1 ?M1 ?N1 ?O1 ?P1)(and (and (and (and (and (and (and (= ?A1 0) (= ?J1 ?V)) (= ?M1 ?Y)) (= ?K1 ?W)) (= ?P1 ?B1)) (= ?I1 ?U)) (= ?L1 ?X)) (= ?N1 ?Z))) (main_s22 ?A ?B ?C ?D ?E ?F ?G ?H ?I ?J ?K ?L ?M ?N ?O ?P ?Q ?R ?S ?T ?U ?V ?W ?X ?Y ?Z ?A1 ?B1))))
(assert(forall((?A Int)(?B Int)(?C Int)(?D Int)(?E Int)(?F Int)(?G Int)(?H Int)(?I Int)(?J Int)(?K Int)(?L Int)(?M Int)(?N Int)(?O Int)(?P Int)(?Q Int)(?R Int)(?S Int)(?T Int)(?U Int)(?V Int)(?W Int)(?X Int)(?Y Int)(?Z Int)(?A1 Int)(?B1 Int)(?C1 Int)(?D1 Int)(?E1 Int)(?F1 Int)(?G1 Int)(?H1 Int)(?I1 Int)(?J1 Int)(?K1 Int)(?L1 Int)(?M1 Int)(?N1 Int)(?O1 Int)(?P1 Int))(=>(and (main_s10 ?A ?B ?C ?D ?E ?F ?G ?H ?I ?J ?K ?L ?M ?N ?C1 ?D1 ?E1 ?F1 ?G1 ?H1 ?I1 ?J1 ?K1 ?L1 ?M1 ?N1 ?O1 ?P1)(and (and (and (and (and (and (and (= ?W ?F1) (= ?J1 ?V)) (= ?M1 ?Y)) (= ?P1 ?B1)) (= ?I1 ?U)) (= ?O1 ?A1)) (= ?L1 ?X)) (= ?N1 ?Z))) (main_s11 ?A ?B ?C ?D ?E ?F ?G ?H ?I ?J ?K ?L ?M ?N ?O ?P ?Q ?R ?S ?T ?U ?V ?W ?X ?Y ?Z ?A1 ?B1))))
(assert(forall((?A Int)(?B Int)(?C Int)(?D Int)(?E Int)(?F Int)(?G Int)(?H Int)(?I Int)(?J Int)(?K Int)(?L Int)(?M Int)(?N Int)(?O Int)(?P Int)(?Q Int)(?R Int)(?S Int)(?T Int)(?U Int)(?V Int)(?W Int)(?X Int)(?Y Int)(?Z Int)(?A1 Int)(?B1 Int)(?C1 Int)(?D1 Int)(?E1 Int)(?F1 Int)(?G1 Int)(?H1 Int)(?I1 Int)(?J1 Int)(?K1 Int)(?L1 Int)(?M1 Int)(?N1 Int)(?O1 Int)(?P1 Int))(=>(and (main_s11 ?A ?B ?C ?D ?E ?F ?G ?H ?I ?J ?K ?L ?M ?N ?C1 ?D1 ?E1 ?F1 ?G1 ?H1 ?I1 ?J1 ?K1 ?L1 ?M1 ?N1 ?O1 ?P1)(and (and (and (and (and (and (and (and (not (>= ?M1 0)) (= ?J1 ?V)) (= ?M1 ?Y)) (= ?K1 ?W)) (= ?P1 ?B1)) (= ?I1 ?U)) (= ?O1 ?A1)) (= ?L1 ?X)) (= ?N1 ?Z))) (main_s15 ?A ?B ?C ?D ?E ?F ?G ?H ?I ?J ?K ?L ?M ?N ?O ?P ?Q ?R ?S ?T ?U ?V ?W ?X ?Y ?Z ?A1 ?B1))))
(assert(forall((?A Int)(?B Int)(?C Int)(?D Int)(?E Int)(?F Int)(?G Int)(?H Int)(?I Int)(?J Int)(?K Int)(?L Int)(?M Int)(?N Int)(?O Int)(?P Int)(?Q Int)(?R Int)(?S Int)(?T Int)(?U Int)(?V Int)(?W Int)(?X Int)(?Y Int)(?Z Int)(?A1 Int)(?B1 Int)(?C1 Int)(?D1 Int)(?E1 Int)(?F1 Int)(?G1 Int)(?H1 Int)(?I1 Int)(?J1 Int)(?K1 Int)(?L1 Int)(?M1 Int)(?N1 Int)(?O1 Int)(?P1 Int))(=>(and (main_s11 ?A ?B ?C ?D ?E ?F ?G ?H ?I ?J ?K ?L ?M ?N ?C1 ?D1 ?E1 ?F1 ?G1 ?H1 ?I1 ?J1 ?K1 ?L1 ?M1 ?N1 ?O1 ?P1)(and (and (and (and (and (and (and (and (>= ?M1 0) (= ?J1 ?V)) (= ?M1 ?Y)) (= ?K1 ?W)) (= ?P1 ?B1)) (= ?I1 ?U)) (= ?O1 ?A1)) (= ?L1 ?X)) (= ?N1 ?Z))) (main_s22 ?A ?B ?C ?D ?E ?F ?G ?H ?I ?J ?K ?L ?M ?N ?O ?P ?Q ?R ?S ?T ?U ?V ?W ?X ?Y ?Z ?A1 ?B1))))
(assert(forall((?A Int)(?B Int)(?C Int)(?D Int)(?E Int)(?F Int)(?G Int)(?H Int)(?I Int)(?J Int)(?K Int)(?L Int)(?M Int)(?N Int)(?O Int)(?P Int)(?Q Int)(?R Int)(?S Int)(?T Int)(?U Int)(?V Int)(?W Int)(?X Int)(?Y Int)(?Z Int)(?A1 Int)(?B1 Int)(?C1 Int)(?D1 Int)(?E1 Int)(?F1 Int)(?G1 Int)(?H1 Int)(?I1 Int)(?J1 Int)(?K1 Int)(?L1 Int)(?M1 Int)(?N1 Int)(?O1 Int)(?P1 Int))(=>(and (main_s4 ?A ?B ?C ?D ?E ?F ?G ?H ?I ?J ?K ?L ?M ?N ?C1 ?D1 ?E1 ?F1 ?G1 ?H1 ?I1 ?J1 ?K1 ?L1 ?M1 ?N1 ?O1 ?P1)(and (and (and (and (and (= ?V 0) (= ?M1 ?Y)) (= ?P1 ?B1)) (= ?O1 ?A1)) (= ?L1 ?X)) (= ?N1 ?Z))) (main_s5 ?A ?B ?C ?D ?E ?F ?G ?H ?I ?J ?K ?L ?M ?N ?O ?P ?Q ?R ?S ?T ?U ?V ?W ?X ?Y ?Z ?A1 ?B1))))
(assert(forall((?A Int)(?B Int)(?C Int)(?D Int)(?E Int)(?F Int)(?G Int)(?H Int)(?I Int)(?J Int)(?K Int)(?L Int)(?M Int)(?N Int)(?O Int)(?P Int)(?Q Int)(?R Int)(?S Int)(?T Int)(?U Int)(?V Int)(?W Int)(?X Int)(?Y Int)(?Z Int)(?A1 Int)(?B1 Int)(?C1 Int)(?D1 Int)(?E1 Int)(?F1 Int)(?G1 Int)(?H1 Int)(?I1 Int)(?J1 Int)(?K1 Int)(?L1 Int)(?M1 Int)(?N1 Int)(?O1 Int)(?P1 Int))(=>(and (main_s8 ?A ?B ?C ?D ?E ?F ?G ?H ?I ?J ?K ?L ?M ?N ?C1 ?D1 ?E1 ?F1 ?G1 ?H1 ?I1 ?J1 ?K1 ?L1 ?M1 ?N1 ?O1 ?P1)(and (and (and (and (and (and (and (= ?V ?G1) (= ?M1 ?Y)) (= ?K1 ?W)) (= ?P1 ?B1)) (= ?I1 ?U)) (= ?O1 ?A1)) (= ?L1 ?X)) (= ?N1 ?Z))) (main_s9 ?A ?B ?C ?D ?E ?F ?G ?H ?I ?J ?K ?L ?M ?N ?O ?P ?Q ?R ?S ?T ?U ?V ?W ?X ?Y ?Z ?A1 ?B1))))
(assert(forall((?A Int)(?B Int)(?C Int)(?D Int)(?E Int)(?F Int)(?G Int)(?H Int)(?I Int)(?J Int)(?K Int)(?L Int)(?M Int)(?N Int)(?O Int)(?P Int)(?Q Int)(?R Int)(?S Int)(?T Int)(?U Int)(?V Int)(?W Int)(?X Int)(?Y Int)(?Z Int)(?A1 Int)(?B1 Int)(?C1 Int)(?D1 Int)(?E1 Int)(?F1 Int)(?G1 Int)(?H1 Int)(?I1 Int)(?J1 Int)(?K1 Int)(?L1 Int)(?M1 Int)(?N1 Int)(?O1 Int)(?P1 Int))(=>(and (main_s30 ?A ?B ?C ?D ?E ?F ?G ?H ?I ?J ?K ?L ?M ?N ?C1 ?D1 ?E1 ?F1 ?G1 ?H1 ?I1 ?J1 ?K1 ?L1 ?M1 ?N1 ?O1 ?P1)(and (and (and (and (and (and (and (= ?X (+ ?L1 1)) (= ?J1 ?V)) (= ?M1 ?Y)) (= ?K1 ?W)) (= ?P1 ?B1)) (= ?I1 ?U)) (= ?O1 ?A1)) (= ?N1 ?Z))) (main_s25 ?A ?B ?C ?D ?E ?F ?G ?H ?I ?J ?K ?L ?M ?N ?O ?P ?Q ?R ?S ?T ?U ?V ?W ?X ?Y ?Z ?A1 ?B1))))
(assert(not (exists((?A Int)(?B Int)(?C Int)(?D Int)(?E Int)(?F Int)(?G Int)(?H Int)(?I Int)(?J Int)(?K Int)(?L Int)(?M Int)(?N Int)(?O Int)(?P Int)(?Q Int)(?R Int)(?S Int)(?T Int)(?U Int)(?V Int)(?W Int)(?X Int)(?Y Int)(?Z Int)(?A1 Int)(?B1 Int)(?C1 Int)(?D1 Int)(?E1 Int)(?F1 Int)(?G1 Int)(?H1 Int)(?I1 Int)(?J1 Int))(and (main_s28 ?A ?B ?C ?D ?E ?F ?G ?H ?I ?J ?K ?L ?M ?N ?O ?P ?Q ?R ?S ?T ?U ?V ?W ?X ?Y ?Z ?A1 ?B1)(and (and (and (and (and (and (and (and (not (= ?A1 0)) (= ?V ?C1)) (= ?Y ?D1)) (= ?W ?E1)) (= ?B1 ?F1)) (= ?U ?G1)) (= ?A1 ?H1)) (= ?X ?I1)) (= ?Z ?J1))))))
(assert(forall((?A Int)(?B Int)(?C Int)(?D Int)(?E Int)(?F Int)(?G Int)(?H Int)(?I Int)(?J Int)(?K Int)(?L Int)(?M Int)(?N Int)(?O Int)(?P Int)(?Q Int)(?R Int)(?S Int)(?T Int)(?U Int)(?V Int)(?W Int)(?X Int)(?Y Int)(?Z Int)(?A1 Int)(?B1 Int)(?C1 Int)(?D1 Int)(?E1 Int)(?F1 Int)(?G1 Int)(?H1 Int)(?I1 Int)(?J1 Int)(?K1 Int)(?L1 Int)(?M1 Int)(?N1 Int)(?O1 Int)(?P1 Int))(=>(and (main_s28 ?A ?B ?C ?D ?E ?F ?G ?H ?I ?J ?K ?L ?M ?N ?C1 ?D1 ?E1 ?F1 ?G1 ?H1 ?I1 ?J1 ?K1 ?L1 ?M1 ?N1 ?O1 ?P1)(and (and (and (and (and (and (and (and (= ?O1 0) (= ?J1 ?V)) (= ?M1 ?Y)) (= ?K1 ?W)) (= ?P1 ?B1)) (= ?I1 ?U)) (= ?O1 ?A1)) (= ?L1 ?X)) (= ?N1 ?Z))) (main_s29 ?A ?B ?C ?D ?E ?F ?G ?H ?I ?J ?K ?L ?M ?N ?O ?P ?Q ?R ?S ?T ?U ?V ?W ?X ?Y ?Z ?A1 ?B1))))
(assert(forall((?A Int)(?B Int)(?C Int)(?D Int)(?E Int)(?F Int)(?G Int)(?H Int)(?I Int)(?J Int)(?K Int)(?L Int)(?M Int)(?N Int)(?O Int)(?P Int)(?Q Int)(?R Int)(?S Int)(?T Int)(?U Int)(?V Int)(?W Int)(?X Int)(?Y Int)(?Z Int)(?A1 Int)(?B1 Int)(?C1 Int)(?D1 Int)(?E1 Int)(?F1 Int)(?G1 Int)(?H1 Int)(?I1 Int)(?J1 Int)(?K1 Int)(?L1 Int)(?M1 Int)(?N1 Int)(?O1 Int)(?P1 Int))(=>(and (main_s20 ?A ?B ?C ?D ?E ?F ?G ?H ?I ?J ?K ?L ?M ?N ?C1 ?D1 ?E1 ?F1 ?G1 ?H1 ?I1 ?J1 ?K1 ?L1 ?M1 ?N1 ?O1 ?P1)(and (and (and (and (and (and (and (= ?A1 0) (= ?J1 ?V)) (= ?M1 ?Y)) (= ?K1 ?W)) (= ?P1 ?B1)) (= ?I1 ?U)) (= ?L1 ?X)) (= ?N1 ?Z))) (main_s21 ?A ?B ?C ?D ?E ?F ?G ?H ?I ?J ?K ?L ?M ?N ?O ?P ?Q ?R ?S ?T ?U ?V ?W ?X ?Y ?Z ?A1 ?B1))))
(assert(forall((?A Int)(?B Int)(?C Int)(?D Int)(?E Int)(?F Int)(?G Int)(?H Int)(?I Int)(?J Int)(?K Int)(?L Int)(?M Int)(?N Int)(?O Int)(?P Int)(?Q Int)(?R Int)(?S Int)(?T Int)(?U Int)(?V Int)(?W Int)(?X Int)(?Y Int)(?Z Int)(?A1 Int)(?B1 Int)(?C1 Int)(?D1 Int)(?E1 Int)(?F1 Int)(?G1 Int)(?H1 Int)(?I1 Int)(?J1 Int)(?K1 Int)(?L1 Int)(?M1 Int)(?N1 Int)(?O1 Int)(?P1 Int))(=>(and (main_s2 ?A ?B ?C ?D ?E ?F ?G ?H ?I ?J ?K ?L ?M ?N ?C1 ?D1 ?E1 ?F1 ?G1 ?H1 ?I1 ?J1 ?K1 ?L1 ?M1 ?N1 ?O1 ?P1)(and (and (and (= ?B1 ?H1) (= ?L1 ?X)) (= ?O1 ?A1)) (= ?N1 ?Z))) (main_s3 ?A ?B ?C ?D ?E ?F ?G ?H ?I ?J ?K ?L ?M ?N ?O ?P ?Q ?R ?S ?T ?U ?V ?W ?X ?Y ?Z ?A1 ?B1))))
(assert(forall((?A Int)(?B Int)(?C Int)(?D Int)(?E Int)(?F Int)(?G Int)(?H Int)(?I Int)(?J Int)(?K Int)(?L Int)(?M Int)(?N Int)(?O Int)(?P Int)(?Q Int)(?R Int)(?S Int)(?T Int)(?U Int)(?V Int)(?W Int)(?X Int)(?Y Int)(?Z Int)(?A1 Int)(?B1 Int)(?C1 Int)(?D1 Int)(?E1 Int)(?F1 Int)(?G1 Int)(?H1 Int)(?I1 Int)(?J1 Int)(?K1 Int)(?L1 Int)(?M1 Int)(?N1 Int)(?O1 Int)(?P1 Int))(=>(and (main_s25 ?A ?B ?C ?D ?E ?F ?G ?H ?I ?J ?K ?L ?M ?N ?C1 ?D1 ?E1 ?F1 ?G1 ?H1 ?I1 ?J1 ?K1 ?L1 ?M1 ?N1 ?O1 ?P1)(and (and (and (and (and (and (and (and (not (> ?L1 0)) (= ?J1 ?V)) (= ?M1 ?Y)) (= ?K1 ?W)) (= ?P1 ?B1)) (= ?I1 ?U)) (= ?O1 ?A1)) (= ?L1 ?X)) (= ?N1 ?Z))) (main_s22 ?A ?B ?C ?D ?E ?F ?G ?H ?I ?J ?K ?L ?M ?N ?O ?P ?Q ?R ?S ?T ?U ?V ?W ?X ?Y ?Z ?A1 ?B1))))
(assert(forall((?A Int)(?B Int)(?C Int)(?D Int)(?E Int)(?F Int)(?G Int)(?H Int)(?I Int)(?J Int)(?K Int)(?L Int)(?M Int)(?N Int)(?O Int)(?P Int)(?Q Int)(?R Int)(?S Int)(?T Int)(?U Int)(?V Int)(?W Int)(?X Int)(?Y Int)(?Z Int)(?A1 Int)(?B1 Int)(?C1 Int)(?D1 Int)(?E1 Int)(?F1 Int)(?G1 Int)(?H1 Int)(?I1 Int)(?J1 Int)(?K1 Int)(?L1 Int)(?M1 Int)(?N1 Int)(?O1 Int)(?P1 Int))(=>(and (main_s25 ?A ?B ?C ?D ?E ?F ?G ?H ?I ?J ?K ?L ?M ?N ?C1 ?D1 ?E1 ?F1 ?G1 ?H1 ?I1 ?J1 ?K1 ?L1 ?M1 ?N1 ?O1 ?P1)(and (and (and (and (and (and (and (and (> ?L1 0) (= ?J1 ?V)) (= ?M1 ?Y)) (= ?K1 ?W)) (= ?P1 ?B1)) (= ?I1 ?U)) (= ?O1 ?A1)) (= ?L1 ?X)) (= ?N1 ?Z))) (main_s26 ?A ?B ?C ?D ?E ?F ?G ?H ?I ?J ?K ?L ?M ?N ?O ?P ?Q ?R ?S ?T ?U ?V ?W ?X ?Y ?Z ?A1 ?B1))))
(assert(forall((?A Int)(?B Int)(?C Int)(?D Int)(?E Int)(?F Int)(?G Int)(?H Int)(?I Int)(?J Int)(?K Int)(?L Int)(?M Int)(?N Int)(?O Int)(?P Int)(?Q Int)(?R Int)(?S Int)(?T Int)(?U Int)(?V Int)(?W Int)(?X Int)(?Y Int)(?Z Int)(?A1 Int)(?B1 Int)(?C1 Int)(?D1 Int)(?E1 Int)(?F1 Int)(?G1 Int)(?H1 Int)(?I1 Int)(?J1 Int)(?K1 Int)(?L1 Int)(?M1 Int)(?N1 Int)(?O1 Int)(?P1 Int))(=>(and (main_s16 ?A ?B ?C ?D ?E ?F ?G ?H ?I ?J ?K ?L ?M ?N ?C1 ?D1 ?E1 ?F1 ?G1 ?H1 ?I1 ?J1 ?K1 ?L1 ?M1 ?N1 ?O1 ?P1)(and (and (and (and (and (and (and (= ?A1 1) (= ?J1 ?V)) (= ?M1 ?Y)) (= ?K1 ?W)) (= ?P1 ?B1)) (= ?I1 ?U)) (= ?L1 ?X)) (= ?N1 ?Z))) (main_s17 ?A ?B ?C ?D ?E ?F ?G ?H ?I ?J ?K ?L ?M ?N ?O ?P ?Q ?R ?S ?T ?U ?V ?W ?X ?Y ?Z ?A1 ?B1))))
(assert(forall((?A Int)(?B Int)(?C Int)(?D Int)(?E Int)(?F Int)(?G Int)(?H Int)(?I Int)(?J Int)(?K Int)(?L Int)(?M Int)(?N Int)(?O Int)(?P Int)(?Q Int)(?R Int)(?S Int)(?T Int)(?U Int)(?V Int)(?W Int)(?X Int)(?Y Int)(?Z Int)(?A1 Int)(?B1 Int)(?C1 Int)(?D1 Int)(?E1 Int)(?F1 Int)(?G1 Int)(?H1 Int)(?I1 Int)(?J1 Int)(?K1 Int)(?L1 Int)(?M1 Int)(?N1 Int)(?O1 Int)(?P1 Int))(=>(and (main_s9 ?A ?B ?C ?D ?E ?F ?G ?H ?I ?J ?K ?L ?M ?N ?C1 ?D1 ?E1 ?F1 ?G1 ?H1 ?I1 ?J1 ?K1 ?L1 ?M1 ?N1 ?O1 ?P1)(and (and (and (and (and (and (and (= ?U ?C1) (= ?J1 ?V)) (= ?M1 ?Y)) (= ?K1 ?W)) (= ?P1 ?B1)) (= ?O1 ?A1)) (= ?L1 ?X)) (= ?N1 ?Z))) (main_s10 ?A ?B ?C ?D ?E ?F ?G ?H ?I ?J ?K ?L ?M ?N ?O ?P ?Q ?R ?S ?T ?U ?V ?W ?X ?Y ?Z ?A1 ?B1))))
(assert(forall((?A Int)(?B Int)(?C Int)(?D Int)(?E Int)(?F Int)(?G Int)(?H Int)(?I Int)(?J Int)(?K Int)(?L Int)(?M Int)(?N Int)(?O Int)(?P Int)(?Q Int)(?R Int)(?S Int)(?T Int)(?U Int)(?V Int)(?W Int)(?X Int)(?Y Int)(?Z Int)(?A1 Int)(?B1 Int)(?C1 Int)(?D1 Int)(?E1 Int)(?F1 Int)(?G1 Int)(?H1 Int)(?I1 Int)(?J1 Int)(?K1 Int)(?L1 Int)(?M1 Int)(?N1 Int)(?O1 Int)(?P1 Int))(=>(and (main_s1 ?A ?B ?C ?D ?E ?F ?G ?H ?I ?J ?K ?L ?M ?N ?C1 ?D1 ?E1 ?F1 ?G1 ?H1 ?I1 ?J1 ?K1 ?L1 ?M1 ?N1 ?O1 ?P1)(and (and (= ?Z ?D1) (= ?L1 ?X)) (= ?O1 ?A1))) (main_s2 ?A ?B ?C ?D ?E ?F ?G ?H ?I ?J ?K ?L ?M ?N ?O ?P ?Q ?R ?S ?T ?U ?V ?W ?X ?Y ?Z ?A1 ?B1))))
(assert(forall((?A Int)(?B Int)(?C Int)(?D Int)(?E Int)(?F Int)(?G Int)(?H Int)(?I Int)(?J Int)(?K Int)(?L Int)(?M Int)(?N Int)(?O Int)(?P Int)(?Q Int)(?R Int)(?S Int)(?T Int)(?U Int)(?V Int)(?W Int)(?X Int)(?Y Int)(?Z Int)(?A1 Int)(?B1 Int)(?C1 Int)(?D1 Int)(?E1 Int)(?F1 Int)(?G1 Int)(?H1 Int)(?I1 Int)(?J1 Int)(?K1 Int)(?L1 Int)(?M1 Int)(?N1 Int)(?O1 Int)(?P1 Int))(=>(and (main_s21 ?A ?B ?C ?D ?E ?F ?G ?H ?I ?J ?K ?L ?M ?N ?C1 ?D1 ?E1 ?F1 ?G1 ?H1 ?I1 ?J1 ?K1 ?L1 ?M1 ?N1 ?O1 ?P1)(and (and (and (and (and (and (and (= ?Z (+ ?N1 1)) (= ?J1 ?V)) (= ?M1 ?Y)) (= ?K1 ?W)) (= ?P1 ?B1)) (= ?I1 ?U)) (= ?O1 ?A1)) (= ?L1 ?X))) (main_s12 ?A ?B ?C ?D ?E ?F ?G ?H ?I ?J ?K ?L ?M ?N ?O ?P ?Q ?R ?S ?T ?U ?V ?W ?X ?Y ?Z ?A1 ?B1))))
(assert(forall((?A Int)(?B Int)(?C Int)(?D Int)(?E Int)(?F Int)(?G Int)(?H Int)(?I Int)(?J Int)(?K Int)(?L Int)(?M Int)(?N Int)(?O Int)(?P Int)(?Q Int)(?R Int)(?S Int)(?T Int)(?U Int)(?V Int)(?W Int)(?X Int)(?Y Int)(?Z Int)(?A1 Int)(?B1 Int)(?C1 Int)(?D1 Int)(?E1 Int)(?F1 Int)(?G1 Int)(?H1 Int)(?I1 Int)(?J1 Int)(?K1 Int)(?L1 Int)(?M1 Int)(?N1 Int)(?O1 Int)(?P1 Int))(=>(and (main_s3 ?A ?B ?C ?D ?E ?F ?G ?H ?I ?J ?K ?L ?M ?N ?C1 ?D1 ?E1 ?F1 ?G1 ?H1 ?I1 ?J1 ?K1 ?L1 ?M1 ?N1 ?O1 ?P1)(and (and (and (and (= ?Y 0) (= ?L1 ?X)) (= ?O1 ?A1)) (= ?N1 ?Z)) (= ?P1 ?B1))) (main_s4 ?A ?B ?C ?D ?E ?F ?G ?H ?I ?J ?K ?L ?M ?N ?O ?P ?Q ?R ?S ?T ?U ?V ?W ?X ?Y ?Z ?A1 ?B1))))
(assert(forall((?A Int)(?B Int)(?C Int)(?D Int)(?E Int)(?F Int)(?G Int)(?H Int)(?I Int)(?J Int)(?K Int)(?L Int)(?M Int)(?N Int)(?O Int)(?P Int)(?Q Int)(?R Int)(?S Int)(?T Int)(?U Int)(?V Int)(?W Int)(?X Int)(?Y Int)(?Z Int)(?A1 Int)(?B1 Int)(?C1 Int)(?D1 Int)(?E1 Int)(?F1 Int)(?G1 Int)(?H1 Int)(?I1 Int)(?J1 Int)(?K1 Int)(?L1 Int)(?M1 Int)(?N1 Int)(?O1 Int)(?P1 Int))(=>(and (main_s17 ?A ?B ?C ?D ?E ?F ?G ?H ?I ?J ?K ?L ?M ?N ?C1 ?D1 ?E1 ?F1 ?G1 ?H1 ?I1 ?J1 ?K1 ?L1 ?M1 ?N1 ?O1 ?P1)(and (and (and (and (and (and (and (= ?B1 ?N1) (= ?J1 ?V)) (= ?M1 ?Y)) (= ?K1 ?W)) (= ?I1 ?U)) (= ?O1 ?A1)) (= ?L1 ?X)) (= ?N1 ?Z))) (main_s18 ?A ?B ?C ?D ?E ?F ?G ?H ?I ?J ?K ?L ?M ?N ?O ?P ?Q ?R ?S ?T ?U ?V ?W ?X ?Y ?Z ?A1 ?B1))))
(assert(forall((?A Int)(?B Int)(?C Int)(?D Int)(?E Int)(?F Int)(?G Int)(?H Int)(?I Int)(?J Int)(?K Int)(?L Int)(?M Int)(?N Int)(?O Int)(?P Int)(?Q Int)(?R Int)(?S Int)(?T Int)(?U Int)(?V Int)(?W Int)(?X Int)(?Y Int)(?Z Int)(?A1 Int)(?B1 Int)(?C1 Int)(?D1 Int)(?E1 Int)(?F1 Int)(?G1 Int)(?H1 Int)(?I1 Int)(?J1 Int)(?K1 Int)(?L1 Int)(?M1 Int)(?N1 Int)(?O1 Int)(?P1 Int))(=>(and (main_s_init ?A ?B ?C ?D ?E ?F ?G ?H ?I ?J ?K ?L ?M ?N ?C1 ?D1 ?E1 ?F1 ?G1 ?H1 ?I1 ?J1 ?K1 ?L1 ?M1 ?N1 ?O1 ?P1)(and (= ?X 0) (= ?A1 0))) (main_s1 ?A ?B ?C ?D ?E ?F ?G ?H ?I ?J ?K ?L ?M ?N ?O ?P ?Q ?R ?S ?T ?U ?V ?W ?X ?Y ?Z ?A1 ?B1))))
(assert(forall((?A Int)(?B Int)(?C Int)(?D Int)(?E Int)(?F Int)(?G Int)(?H Int)(?I Int)(?J Int)(?K Int)(?L Int)(?M Int)(?N Int)(?O Int)(?P Int)(?Q Int)(?R Int)(?S Int)(?T Int)(?U Int)(?V Int)(?W Int)(?X Int)(?Y Int)(?Z Int)(?A1 Int)(?B1 Int))(=>(and (and (and (and (and (and (and (and (and (and (and (and (and (= ?A ?O) (= ?B ?P)) (= ?C ?Q)) (= ?D ?R)) (= ?E ?S)) (= ?F ?T)) (= ?G ?U)) (= ?H ?V)) (= ?I ?W)) (= ?J ?X)) (= ?K ?Y)) (= ?L ?Z)) (= ?M ?A1)) (= ?N ?B1)) (main_s_init ?A ?B ?C ?D ?E ?F ?G ?H ?I ?J ?K ?L ?M ?N ?O ?P ?Q ?R ?S ?T ?U ?V ?W ?X ?Y ?Z ?A1 ?B1))))
(check-sat)
